s td 43 24 84
b 1 12 19 41 45 66 72 81
b 2 6 19 41 61 66 72 73
b 3 4 20 27 30 33 36 80
b 4 2 4 20 30 60 80 84
b 5 10 15 35 54 65 69 71 82
b 6 2 10 15 60 69 71 84
b 7 1 2 5 10 11 15 25 28 29 31 40 41 43 44 51 57 59 60 72 74 77 78 79 84
b 8 1 5 10 11 15 22 25 28 29 31 40 41 43 44 51 57 59 72 74 76 77 78 79
b 9 5 10 11 15 21 22 23 25 28 29 31 40 41 43 44 51 57 59 72 74 76 77 78 79
b 10 5 10 11 15 21 22 23 25 28 29 31 32 34 40 41 44 51 59 72 74 76 77 78 79
b 11 5 10 11 15 18 21 22 23 25 28 29 31 32 34 40 41 44 51 59 72 76 77 78 79
b 12 5 10 11 14 15 18 21 22 23 26 28 29 32 34 40 41 44 51 59 72 76 77 78 79
b 13 3 10 11 14 15 26 28 32 44 76 78 79
b 14 3 8 10 15 26 28 32 76 78 79
b 15 5 11 14 21 23 26 34 38 41 59 72 78
b 16 11 14 21 23 34 38 41 55 59 72
b 17 5 14 18 22 26 29 40 41 44 46 51 59 72 77 79
b 18 5 18 22 26 29 40 41 46 51 58 72 77 79
b 19 14 18 21 22 23 26 28 32 34 41 50 72 76 77
b 20 14 21 22 23 26 28 41 48 50 72 76 77
b 21 14 21 26 28 41 48 50 62 72 77
b 22 5 21 22 23 29 31 40 41 43 51 57 59 72 77 83
b 23 5 22 23 29 31 39 40 41 51 57 59 72 83
b 24 10 11 15 21 23 28 43 57 70 74 76 78
b 25 10 11 15 23 57 64 70 74 76 78
b 26 2 17 29 37 40 41 51 60 72 84
b 27 6 17 29 37 40 41 51 61 72 73
b 28 1 2 5 10 11 15 25 28 31 40 43 44 51 53 57 59 60 74 77 78 79 84
b 29 1 2 5 10 11 15 25 31 40 43 44 51 53 57 59 60 67 74 78 79 84
b 30 1 2 10 11 15 25 31 40 43 44 51 53 56 57 59 60 67 74 79 84
b 31 1 2 10 13 15 25 31 40 43 44 51 53 56 57 60 67 74 79 84
b 32 1 2 13 20 25 30 43 44 53 56 57 60 67 79 84
b 33 1 13 20 25 30 43 44 53 56 57 67 75 79
b 34 13 20 25 30 43 44 53 56 57 67 68 75 79
b 35 13 20 25 30 42 43 44 53 56 57 67 68 75
b 36 9 13 20 30 42 43 44 53 56 57 67 68 75
b 37 7 9 13 20 30 42 43 44 53 57 67 68 75
b 38 7 9 13 20 30 42 43 57 63 67 68 75
b 39 7 9 13 20 30 42 43 49 57 63 75
b 40 7 9 13 20 30 42 43 47 49 63
b 41 7 9 16 20 30 43 47 49 63
b 42 7 9 20 24 30 42 44 68 75
b 43 1 2 13 25 43 44 52 53 56 57 60 67 79 84
1 2
2 27
3 4
4 32
5 6
6 7
7 8
7 26
7 28
8 9
9 10
9 22
9 24
10 11
11 12
12 13
12 15
12 17
12 19
13 14
15 16
17 18
19 20
20 21
22 23
24 25
26 27
28 29
29 30
30 31
31 32
31 43
32 33
33 34
34 35
35 36
36 37
37 38
37 42
38 39
39 40
40 41
